(set-info :smt-lib-version 2.6)
(set-logic QF_LIA)
(set-info :category "industrial")
(set-info :status sat)
(declare-fun x0 () Int)
(declare-fun x1 () Int)
(declare-fun x10 () Int)
(declare-fun x11 () Int)
(declare-fun x12 () Int)
(declare-fun x13 () Int)
(declare-fun x14 () Int)
(declare-fun x15 () Int)
(declare-fun x16 () Int)
(declare-fun x17 () Int)
(declare-fun x18 () Int)
(declare-fun x19 () Int)
(declare-fun x2 () Int)
(declare-fun x20 () Int)
(declare-fun x21 () Int)
(declare-fun x22 () Int)
(declare-fun x23 () Int)
(declare-fun x24 () Int)
(declare-fun x25 () Int)
(declare-fun x26 () Int)
(declare-fun x27 () Int)
(declare-fun x28 () Int)
(declare-fun x29 () Int)
(declare-fun x3 () Int)
(declare-fun x4 () Int)
(declare-fun x5 () Int)
(declare-fun x6 () Int)
(declare-fun x7 () Int)
(declare-fun x8 () Int)
(declare-fun x9 () Int)
(assert (let ((?v_86 (* 1 x1)) (?v_2 (* 0 x13)) (?v_59 (* 1 x15)) (?v_5 (* 1 x17)) (?v_6 (* 0 x18)) (?v_15 (* 0 x2)) (?v_0 (* 0 x21)) (?v_29 (* 0 x28)) (?v_3 (* 0 x29)) (?v_46 (* 1 x3)) (?v_9 (* 0 x4)) (?v_35 (* 0 x6)) (?v_47 (* 0 x5)) (?v_1 (* 0 x9)) (?v_12 (* 0 x10)) (?v_4 (* 0 x11)) (?v_44 (* 0 x17)) (?v_8 (* 0 x23)) (?v_49 (* 1 x12)) (?v_14 (* 2 x15)) (?v_27 (* 1 x16)) (?v_36 (* 1 x19)) (?v_7 (* 1 x2)) (?v_30 (* 1 x4)) (?v_67 (* 0 x24)) (?v_100 (* 2 x7)) (?v_83 (* 0 x22)) (?v_16 (* 0 x25)) (?v_84 (* 0 x26)) (?v_62 (* 1 x27)) (?v_22 (* 0 x7)) (?v_17 (* 1 x24)) (?v_94 (* 1 x9)) (?v_41 (* 0 x12)) (?v_76 (* 0 x19)) (?v_21 (* 0 x27)) (?v_19 (* 1 x20)) (?v_37 (* 1 x21)) (?v_31 (* 2 x6)) (?v_32 (* 0 x0)) (?v_23 (* 0 x1)) (?v_87 (* 0 x15)) (?v_77 (* 1 x23)) (?v_34 (* 0 x3)) (?v_69 (* 0 x8))) (let ((?v_48 (+ ?v_69 ?v_1)) (?v_89 (* 2 x14)) (?v_55 (* 1 x29)) (?v_80 (* 1 x8)) (?v_57 (* 1 x11)) (?v_70 (* 1 x26)) (?v_74 (* 0 x20)) (?v_61 (* 1 x25)) (?v_78 (* 1 x10)) (?v_60 (* 0 x16)) (?v_91 (* 1 x14)) (?v_73 (* 1 x18)) (?v_58 (* 0 x14)) (?v_65 (* 1 x22)) (?v_79 (* 1 x5)) (?v_95 (* 2 x0)) (?v_96 (* 1 x13)) (?v_85 (* 1 x7)) (?v_71 (* 1 x0)) (?v_88 (* 1 x28)) (?v_90 (* 2 x27)) (?v_102 (* 1 x6)) (?v_103 (* 2 x24)) (?v_92 (* 2 x20)) (?v_97 (* 2 x22))) (let ((?v_99 (+ ?v_47 ?v_85)) (?v_98 (+ ?v_79 ?v_85)) (?v_106 (* 2 x21)) (?v_105 (+ ?v_47 ?v_80)) (?v_39 (* (- 1) x0)) (?v_11 (* (- 1) x11)) (?v_18 (* (- 1) x19)) (?v_54 (* (- 1) x27)) (?v_56 (* (- 1) x8)) (?v_24 (* (- 1) x18)) (?v_28 (* (- 1) x25)) (?v_20 (* (- 1) x22)) (?v_10 (* (- 2) x5)) (?v_13 (* (- 1) x3)) (?v_42 (* (- 1) x14)) (?v_26 (* (- 1) x23)) (?v_68 (* (- 1) x9)) (?v_51 (* (- 1) x7)) (?v_33 (* (- 1) x16)) (?v_81 (* (- 1) x17)) (?v_25 (* (- 1) x21)) (?v_82 (* (- 1) x29)) (?v_43 (* (- 1) x6)) (?v_50 (* (- 1) x20)) (?v_38 (* (- 1) x24)) (?v_45 (* (- 1) x26)) (?v_40 (* (- 1) x10)) (?v_53 (* (- 1) x2)) (?v_66 (* (- 1) x5)) (?v_72 (* (- 1) x1)) (?v_52 (* (- 1) x15)) (?v_63 (* (- 1) x12)) (?v_75 (* (- 1) x13)) (?v_104 (* (- 2) x8)) (?v_64 (* (- 1) x4)) (?v_101 (* (- 2) x23)) (?v_93 (* (- 1) x28)) (?v_107 (* (- 2) x1))) (and (<= (+ ?v_39 (+ ?v_11 (+ ?v_86 (+ ?v_2 (+ ?v_59 (+ ?v_5 (+ ?v_6 (+ ?v_18 (+ ?v_15 (+ ?v_0 (+ (* (- 2) x24) (+ ?v_54 (+ ?v_29 (+ ?v_3 (+ ?v_46 (+ ?v_9 (+ ?v_35 (+ ?v_56 (+ ?v_47 ?v_1))))))))))))))))))) 0) (<= (+ ?v_12 (+ ?v_4 (+ ?v_44 (+ ?v_0 (+ ?v_8 (+ ?v_1 (+ ?v_49 (+ ?v_14 (+ ?v_27 (+ ?v_24 (+ ?v_28 (+ ?v_2 (+ ?v_3 (+ ?v_36 (+ ?v_7 (+ ?v_20 (+ ?v_30 (+ ?v_10 (+ ?v_67 ?v_100))))))))))))))))))) 1) (<= (+ ?v_4 (+ (* (- 2) x14) (+ ?v_13 (+ ?v_5 (+ ?v_6 (+ ?v_7 (+ ?v_83 (+ ?v_8 (+ ?v_16 (+ ?v_84 (+ ?v_3 (+ ?v_9 (+ ?v_62 (+ ?v_10 (+ ?v_22 (+ ?v_17 ?v_94)))))))))))))))) 1) (<= (+ ?v_11 (+ ?v_12 (+ ?v_41 (+ ?v_2 (+ ?v_42 (+ ?v_26 (+ ?v_13 (+ ?v_68 (+ ?v_14 (+ ?v_51 (+ ?v_76 (+ ?v_15 (+ ?v_16 (+ ?v_21 (+ ?v_9 (+ ?v_19 (+ ?v_37 (+ ?v_17 ?v_31)))))))))))))))))) 0) (<= (+ ?v_32 (+ ?v_23 (+ ?v_12 (+ ?v_4 (+ ?v_87 (+ ?v_33 (+ ?v_81 (+ ?v_18 (+ ?v_25 (+ ?v_19 (+ ?v_20 (+ ?v_77 (+ ?v_82 (+ ?v_43 (+ ?v_16 (+ ?v_21 (+ ?v_34 (+ ?v_9 (+ ?v_22 ?v_48))))))))))))))))))) 1) (<= (+ (* (- 2) x11) (+ ?v_23 (+ ?v_12 (+ ?v_24 (+ ?v_50 (+ ?v_25 (+ ?v_26 (+ ?v_2 (+ ?v_27 (+ ?v_89 (+ (* 2 x17) (+ ?v_38 (+ ?v_28 (+ ?v_45 (+ ?v_29 (+ ?v_55 (+ ?v_30 (+ ?v_31 (+ ?v_22 ?v_80))))))))))))))))))) 0) (<= (+ ?v_32 (+ ?v_40 (+ ?v_57 (+ ?v_33 (+ ?v_5 (+ ?v_53 (+ ?v_26 (+ ?v_2 (+ ?v_21 (+ ?v_3 (+ ?v_34 (+ ?v_35 (+ ?v_22 (+ ?v_1 (+ ?v_36 (+ ?v_37 (+ ?v_38 (+ ?v_70 ?v_66)))))))))))))))))) 1) (<= (+ ?v_39 (+ ?v_40 (+ ?v_11 (+ ?v_41 (+ ?v_42 (+ ?v_33 (+ ?v_25 (+ ?v_43 (+ ?v_44 (+ ?v_6 (+ ?v_15 (+ ?v_74 (+ ?v_36 (+ ?v_61 (+ ?v_45 (+ ?v_3 (+ ?v_46 (+ ?v_47 ?v_48)))))))))))))))))) 0) (<= (+ ?v_72 (+ ?v_78 (+ ?v_49 (+ (* (- 3) x8) (+ ?v_52 (+ ?v_13 (+ ?v_60 (+ ?v_15 (+ ?v_50 (+ ?v_0 (+ ?v_91 (+ ?v_73 (+ ?v_36 (+ ?v_45 (+ ?v_21 (+ ?v_51 ?v_47)))))))))))))))) 1) (<= (+ ?v_23 (+ (* (- 2) x10) (+ ?v_63 (+ ?v_75 (+ ?v_52 (+ ?v_44 (+ ?v_24 (+ ?v_18 (+ ?v_53 (+ ?v_50 (+ ?v_58 (+ ?v_45 (+ ?v_54 (+ ?v_29 (+ ?v_55 (+ ?v_56 (+ ?v_22 (+ ?v_1 (* 2 x5))))))))))))))))))) 0) (<= (+ ?v_32 (+ ?v_23 (+ ?v_12 (+ ?v_57 (+ ?v_41 (+ ?v_104 (+ ?v_18 (+ ?v_25 (+ ?v_64 (+ ?v_43 (+ ?v_58 (+ ?v_59 (+ ?v_60 (+ ?v_5 (+ ?v_15 (+ ?v_8 (+ ?v_1 (+ ?v_65 (+ ?v_61 (+ ?v_45 (+ ?v_62 ?v_79))))))))))))))))))))) (- 1)) (<= (+ ?v_95 (+ ?v_40 (+ ?v_57 (+ ?v_63 (+ ?v_33 (+ ?v_64 (+ ?v_96 (+ ?v_58 (+ ?v_65 (+ ?v_66 (+ ?v_67 (+ ?v_29 (+ ?v_35 (+ ?v_61 (+ ?v_62 (+ ?v_55 (+ ?v_85 (* 2 x26)))))))))))))))))) 1) (<= (+ ?v_71 (+ ?v_40 (+ ?v_4 (+ ?v_24 (+ ?v_68 (+ ?v_2 (+ ?v_58 (+ ?v_44 (+ ?v_15 (+ ?v_0 (+ (* 2 x23) (+ ?v_66 (+ ?v_67 (+ ?v_16 (+ ?v_88 (+ ?v_3 (+ ?v_9 (+ ?v_69 ?v_70)))))))))))))))))) 0) (<= (+ ?v_71 (+ ?v_72 (+ ?v_4 (+ ?v_68 (+ ?v_58 (+ ?v_59 (+ ?v_27 (+ ?v_5 (+ ?v_73 (+ ?v_15 (+ ?v_74 (+ ?v_0 (+ ?v_29 (+ ?v_61 (+ ?v_55 (+ ?v_90 (+ ?v_66 (+ ?v_102 (+ ?v_69 ?v_103))))))))))))))))))) (- 1)) (<= (+ ?v_71 (+ ?v_4 (+ ?v_41 (+ ?v_75 (+ ?v_68 (+ ?v_59 (+ ?v_60 (+ ?v_73 (+ ?v_53 (+ ?v_76 (+ ?v_0 (+ ?v_77 (+ ?v_29 (+ ?v_3 (+ ?v_9 (+ ?v_19 (+ ?v_66 (+ ?v_35 (+ ?v_22 (+ ?v_69 ?v_17)))))))))))))))))))) 0) (<= (+ ?v_32 (+ ?v_78 (+ ?v_57 (+ ?v_49 (+ ?v_52 (+ (* (- 3) x16) (+ ?v_101 (+ ?v_2 (+ ?v_37 (+ ?v_21 (+ ?v_29 (+ ?v_3 (+ ?v_9 (+ ?v_35 (+ ?v_19 (+ ?v_22 (+ ?v_1 (+ ?v_79 ?v_80)))))))))))))))))) (- 1)) (<= (+ ?v_32 (+ ?v_40 (+ (* 2 x11) (+ (* (- 2) x21) (+ ?v_81 (+ ?v_28 (+ ?v_54 (+ ?v_82 (+ ?v_13 (+ ?v_64 (+ ?v_2 (+ ?v_60 (+ ?v_15 (+ ?v_19 (+ ?v_83 (+ ?v_8 (+ ?v_84 (+ ?v_35 ?v_85)))))))))))))))))) 0) (<= (+ ?v_71 (+ ?v_4 (+ ?v_86 (+ ?v_25 (+ ?v_58 (+ ?v_59 (+ ?v_60 (+ ?v_76 (+ ?v_65 (+ ?v_67 (+ ?v_3 (+ ?v_9 (+ ?v_69 (+ ?v_1 (+ ?v_61 (+ ?v_70 ?v_85)))))))))))))))) 0) (<= (+ ?v_72 (+ ?v_40 (+ ?v_25 (+ ?v_49 (+ (* (- 2) x4) (+ ?v_50 (+ ?v_28 (+ ?v_43 (+ (* (- 2) x7) (+ ?v_58 (+ ?v_5 (+ ?v_15 (+ ?v_36 (+ ?v_67 (+ ?v_3 (+ ?v_1 (+ ?v_62 ?v_47))))))))))))))))) 0) (<= (+ ?v_32 (+ ?v_23 (+ ?v_40 (+ ?v_63 (+ ?v_75 (+ ?v_87 (+ ?v_6 (+ ?v_0 (+ ?v_28 (+ ?v_58 (+ ?v_34 (+ ?v_35 (+ ?v_36 (+ ?v_92 (+ ?v_97 (+ ?v_67 (+ ?v_84 (+ ?v_62 (+ ?v_88 (+ ?v_30 ?v_22)))))))))))))))))))) (- 1)) (<= (+ ?v_4 (+ ?v_63 (+ ?v_52 (+ ?v_2 (+ ?v_60 (+ ?v_5 (+ ?v_6 (+ ?v_0 (+ ?v_83 (+ ?v_8 (+ ?v_34 (+ ?v_69 (+ ?v_1 (+ ?v_89 (+ ?v_67 (+ ?v_84 (+ ?v_90 (+ (* 2 x4) ?v_99)))))))))))))))))) (- 1)) (<= (+ ?v_39 (+ ?v_23 (+ ?v_12 (+ ?v_81 (+ ?v_25 (+ ?v_68 (+ ?v_41 (+ ?v_2 (+ ?v_6 (+ ?v_8 (+ ?v_16 (+ ?v_91 (+ ?v_92 (+ ?v_67 (+ ?v_84 (+ ?v_88 (+ ?v_34 (+ ?v_9 (+ ?v_69 ?v_98))))))))))))))))))) 0) (<= (+ ?v_12 (+ ?v_57 (+ (* (- 2) x29) (+ ?v_52 (+ ?v_5 (+ ?v_53 (+ ?v_93 (+ ?v_68 (+ ?v_2 (+ ?v_76 (+ ?v_77 (+ ?v_92 (+ ?v_67 (+ ?v_16 (+ ?v_84 (+ ?v_21 (+ ?v_9 ?v_79))))))))))))))))) 0) (<= (+ ?v_11 (+ ?v_86 (+ ?v_41 (+ ?v_75 (+ ?v_18 (+ ?v_53 (+ ?v_93 (+ ?v_58 (+ ?v_87 (+ ?v_60 (+ ?v_44 (+ ?v_77 (+ ?v_92 (+ ?v_67 (+ ?v_16 (+ ?v_84 (+ ?v_9 (+ ?v_79 ?v_94)))))))))))))))))) (- 1)) (<= (+ ?v_95 (+ ?v_72 (+ ?v_40 (+ ?v_26 (+ ?v_57 (+ ?v_49 (+ ?v_52 (+ ?v_33 (+ ?v_81 (+ ?v_0 (+ ?v_88 (+ ?v_82 (+ ?v_73 (+ ?v_67 (+ ?v_16 (+ ?v_1 (+ ?v_46 (+ ?v_35 (+ ?v_30 ?v_69))))))))))))))))))) 0) (<= (+ ?v_71 (+ ?v_12 (+ ?v_4 (+ ?v_75 (+ ?v_42 (+ ?v_87 (+ ?v_5 (+ ?v_73 (+ ?v_53 (+ ?v_50 (+ ?v_106 (+ ?v_83 (+ ?v_67 (+ ?v_35 (+ ?v_1 (+ ?v_61 (+ ?v_22 (+ ?v_70 (+ ?v_30 ?v_105))))))))))))))))))) (- 1)) (<= (+ ?v_72 (+ ?v_64 (+ ?v_96 (+ ?v_58 (+ ?v_60 (+ ?v_5 (+ ?v_6 (+ ?v_0 (+ ?v_8 (+ ?v_29 (+ ?v_3 (+ ?v_34 (+ ?v_35 (+ ?v_1 (+ ?v_36 (+ ?v_97 (+ (* (- 2) x26) (+ ?v_67 (+ ?v_16 ?v_98))))))))))))))))))) 0) (<= (+ ?v_39 (+ ?v_93 (+ ?v_68 (+ ?v_23 (+ ?v_12 (+ ?v_41 (+ ?v_59 (+ ?v_60 (+ ?v_44 (+ ?v_6 (+ ?v_15 (+ ?v_50 (+ ?v_8 (+ ?v_54 (+ ?v_2 (+ ?v_36 (+ ?v_20 (+ ?v_67 (+ ?v_61 ?v_99))))))))))))))))))) 0) (<= (+ ?v_71 (+ ?v_72 (+ ?v_11 (+ ?v_78 (+ ?v_96 (+ ?v_18 (+ ?v_50 (+ ?v_58 (+ ?v_44 (+ ?v_0 (+ ?v_59 (+ ?v_45 (+ ?v_67 (+ ?v_29 (+ ?v_3 (+ ?v_61 (+ ?v_47 (+ ?v_35 (+ ?v_22 (+ ?v_1 ?v_80)))))))))))))))))))) 0) (<= (+ ?v_32 (+ ?v_107 (+ ?v_40 (+ ?v_11 (+ ?v_2 (+ ?v_42 (+ ?v_87 (+ ?v_33 (+ ?v_64 (+ ?v_43 (+ ?v_68 (+ ?v_6 (+ ?v_54 (+ ?v_76 (+ ?v_61 (+ ?v_84 (+ ?v_88 (+ ?v_47 (+ ?v_22 ?v_69))))))))))))))))))) (- 1)) (<= (+ ?v_71 (+ ?v_86 (+ ?v_40 (+ ?v_63 (+ ?v_2 (+ ?v_87 (+ ?v_74 (+ ?v_8 (+ ?v_36 (+ ?v_61 (+ (* 3 x22) (+ ?v_84 (+ ?v_21 (+ ?v_29 (+ ?v_34 (+ ?v_47 (+ ?v_69 (+ ?v_1 ?v_100)))))))))))))))))) 1) (<= (+ ?v_101 (+ ?v_95 (+ ?v_11 (+ ?v_23 (+ ?v_12 (+ ?v_41 (+ ?v_33 (+ ?v_13 (+ ?v_96 (+ ?v_58 (+ ?v_5 (+ ?v_73 (+ ?v_16 (+ ?v_84 (+ ?v_21 (+ ?v_29 (+ ?v_47 ?v_102))))))))))))))))) 1) (<= (+ ?v_4 (+ ?v_86 (+ ?v_41 (+ ?v_33 (+ ?v_2 (+ ?v_58 (+ ?v_44 (+ ?v_15 (+ ?v_74 (+ ?v_16 (+ ?v_34 (+ ?v_1 (+ ?v_36 (+ ?v_83 (+ ?v_84 (+ ?v_88 (+ ?v_30 (+ ?v_102 (+ ?v_22 ?v_103))))))))))))))))))) 0) (<= (+ ?v_32 (+ (* (- 2) x9) (+ ?v_86 (+ ?v_78 (+ ?v_87 (+ ?v_5 (+ ?v_50 (+ ?v_37 (+ ?v_20 (+ ?v_29 (+ ?v_43 (+ ?v_3 (+ ?v_34 (+ ?v_61 (+ ?v_51 (+ ?v_56 (+ ?v_89 (+ ?v_84 (+ ?v_21 ?v_17))))))))))))))))))) (- 1)) (<= (+ ?v_71 (+ ?v_23 (+ ?v_63 (+ ?v_26 (+ ?v_5 (+ ?v_104 (+ ?v_60 (+ ?v_50 (+ ?v_54 (+ ?v_13 (+ ?v_64 (+ ?v_76 (+ ?v_37 (+ ?v_83 (+ ?v_16 (+ ?v_84 (+ ?v_88 (+ ?v_3 (+ ?v_22 ?v_17))))))))))))))))))) 0) (<= (+ ?v_26 (+ ?v_32 (+ ?v_23 (+ ?v_12 (+ ?v_57 (+ ?v_41 (+ ?v_64 (+ ?v_60 (+ ?v_35 (+ ?v_1 (+ ?v_96 (+ ?v_91 (+ ?v_5 (+ ?v_37 (+ ?v_84 (+ ?v_22 (+ ?v_17 (+ ?v_88 ?v_46)))))))))))))))))) (- 1)) (<= (+ ?v_32 (+ ?v_23 (+ ?v_40 (+ ?v_4 (+ ?v_49 (+ ?v_33 (+ ?v_81 (+ ?v_82 (+ ?v_96 (+ ?v_58 (+ ?v_76 (+ ?v_29 (+ ?v_7 (+ ?v_46 (+ ?v_47 (+ ?v_69 (+ ?v_1 (+ ?v_17 (+ ?v_102 ?v_85))))))))))))))))))) 0) (<= (+ ?v_11 (+ ?v_41 (+ ?v_87 (+ ?v_53 (+ ?v_0 (+ ?v_54 (+ ?v_43 (+ ?v_56 (+ ?v_22 (+ ?v_91 (+ ?v_73 (+ ?v_36 (+ ?v_19 (+ ?v_65 (+ ?v_77 (+ ?v_47 (+ ?v_17 (+ ?v_70 ?v_30)))))))))))))))))) 0) (<= (+ ?v_23 (+ ?v_40 (+ ?v_41 (+ (* (- 2) x15) (+ ?v_81 (+ (* (- 2) x18) (+ ?v_18 (+ ?v_64 (+ ?v_15 (+ ?v_37 (+ ?v_21 (+ ?v_3 (+ ?v_65 (+ ?v_88 (+ ?v_46 (+ ?v_94 (+ ?v_89 ?v_10))))))))))))))))) 0) (<= (+ ?v_39 (+ ?v_40 (+ ?v_82 (+ ?v_49 (+ ?v_2 (+ ?v_15 (+ ?v_74 (+ ?v_8 (+ ?v_29 (+ ?v_35 (+ ?v_22 (+ ?v_91 (+ (* 2 x16) (+ ?v_61 (+ ?v_62 (+ ?v_46 ?v_47)))))))))))))))) 1) (<= (+ ?v_71 (+ ?v_78 (+ (* (- 3) x12) (+ ?v_81 (+ ?v_25 (+ ?v_26 (+ ?v_2 (+ ?v_60 (+ ?v_6 (+ ?v_15 (+ ?v_16 (+ ?v_29 (+ ?v_3 (+ ?v_34 (+ ?v_36 (+ ?v_65 (+ ?v_30 (+ ?v_66 (+ ?v_85 ?v_80))))))))))))))))))) 1) (<= (+ ?v_32 (+ ?v_72 (+ ?v_12 (+ ?v_87 (+ ?v_6 (+ ?v_53 (+ ?v_54 (+ ?v_29 (+ ?v_19 (+ ?v_83 (+ ?v_77 (+ ?v_102 (+ ?v_22 (+ ?v_1 (+ ?v_91 (+ ?v_70 ?v_105)))))))))))))))) 0) (<= (+ ?v_39 (+ ?v_4 (+ ?v_86 (+ ?v_49 (+ ?v_28 (+ ?v_2 (+ ?v_87 (+ ?v_60 (+ ?v_6 (+ ?v_19 (+ ?v_106 (+ ?v_83 (+ ?v_8 (+ ?v_29 (+ ?v_22 (+ ?v_1 (+ ?v_70 (+ ?v_62 (+ ?v_30 ?v_47))))))))))))))))))) (- 1)) (<= (+ ?v_107 (+ ?v_26 (+ ?v_49 (+ ?v_24 (+ ?v_54 (+ ?v_56 (+ ?v_68 (+ ?v_2 (+ ?v_27 (+ ?v_5 (+ ?v_15 (+ ?v_74 (+ ?v_83 (+ ?v_16 (+ ?v_3 (+ ?v_34 (+ ?v_9 (+ ?v_70 ?v_98)))))))))))))))))) 1) (<= (+ ?v_71 (+ ?v_81 (+ ?v_25 (+ ?v_87 (+ ?v_60 (+ (* (- 2) x20) (+ ?v_20 (+ ?v_26 (+ ?v_16 (+ ?v_54 (+ ?v_93 (+ ?v_43 (+ ?v_55 (+ ?v_51 (+ ?v_69 (+ ?v_89 (+ ?v_70 ?v_79))))))))))))))))) 0))))))
(check-sat)
(exit)
